NAME : rnd15_20.tsp
TYPE : TSP
DIMENSION : 20
EDGE_WEIGHT_TYPE : EUC_2D
NODE_COORD_SECTION
1 278 353
2 177 984
3 394 979
4 250 934
5 741 891
6 272 662
7 96 445
8 89 807
9 196 886
10 741 245
11 92 214
12 95 937
13 448 166
14 601 418
15 886 130
16 847 896
17 662 510
18 916 275
19 51 124
20 49 336
